(set-info :smt-lib-version 2.6)
(set-logic QF_S)
(set-info :source |
Generated by: Murphy Berzish, Mitja Kulczynski, Federico Mora, Florin Manea, Joel Day, Dirk Nowotka, Vijay Ganesh, Zhengyang Lu
Generated on: 2020-10-01
Description: Translated from a collection of real-world regex queries, AutomataArk, collected by Loris D’Antoni and Fang Wang: https://github.com/lorisdanto/automatark
Application: Evaluate solvers on real-world regex queries
Target solver: Z3str3RE, CVC4, OSTRICH, Z3seq, Z3str3, Z3-Trau
Publications: Berzish, M., Kulczynski, M., Mora, F., Manea, F., Day, J. D., Nowotka, D., & Ganesh, V. (2021, July). An SMT solver for regular expressions and linear arithmetic over string length. In CAV 2021.
|)
(set-info :license "https://creativecommons.org/licenses/by/4.0/")
(set-info :category "industrial")
(set-info :status unsat)

(declare-const X String)
(assert (not (str.in_re X (re.++ (str.to_re "/domain=") (re.* (re.comp (str.to_re "&"))) (re.union (str.to_re "$(") (str.to_re "%3b") (str.to_re "%60") (str.to_re "%24%28") (str.to_re ";") (str.to_re "`")) (str.to_re "/Pi\u{a}")))))
(assert (str.in_re X (re.++ (str.to_re "/guid=") ((_ re.loop 32 32) (re.union (re.range "a" "f") (re.range "0" "9"))) (str.to_re "&state=") (re.union (str.to_re "LOST") (str.to_re "WORK") (str.to_re "WAIT") (str.to_re "RUN")) (str.to_re "/P\u{a}"))))
(assert (str.in_re X (str.to_re "Cookie:AppName/GRSI|Server|\u{13}Host:origin=sidefind\u{a}")))
(assert (str.in_re X (re.++ (str.to_re "rprpgbnrppb/ci") (re.range "0" "9") (str.to_re ".lStopperHost:Host:clvompycem/cen.vcn\u{a}"))))
(check-sat)

(exit)
